NAME : grid_constant_constant_3_5_1.tsp
COMMENT : grid_constant_constant_3_5_1.tsp
TYPE : TSP
DIMENSION : 15
EDGE_WEIGHT_TYPE : EUC_2D
NODE_COORD_SECTION
1 10.000000 10.000000
2 11.000000 10.000000
3 12.000000 10.000000
4 13.000000 10.000000
5 14.000000 10.000000
6 10.000000 11.000000
7 11.000000 11.000000
8 12.000000 11.000000
9 13.000000 11.000000
10 14.000000 11.000000
11 10.000000 12.000000
12 11.000000 12.000000
13 12.000000 12.000000
14 13.000000 12.000000
15 14.000000 12.000000
EOF